analyze/results_flowersnark/final_miplib_symretope_if_extended_generating_set_cpx_v802__settings_final_nosym_norestarts__1__neos-503737.mps.gz.sol
solution status: optimal solution found
objective value:                                   50
C0391                                               1 	(obj:0)
C0427                                               1 	(obj:0)
C0434                                               1 	(obj:0)
C0468                                               1 	(obj:0)
C0546                                               1 	(obj:0)
C0570                                               1 	(obj:0)
C0639                                               1 	(obj:0)
C0653                                               1 	(obj:0)
C0702                                               1 	(obj:0)
C0775                                               1 	(obj:0)
C0812                                               1 	(obj:0)
C0890                                               1 	(obj:0)
C0907                                               1 	(obj:0)
C0993                                               1 	(obj:0)
C1028                                               1 	(obj:0)
C1085                                               1 	(obj:0)
C1114                                               1 	(obj:0)
C1159                                               1 	(obj:0)
C1176                                               1 	(obj:0)
C1205                                               1 	(obj:0)
C1273                                               1 	(obj:0)
C1308                                               1 	(obj:0)
C1400                                               1 	(obj:0)
C1449                                               1 	(obj:0)
C1486                                               1 	(obj:0)
C1511                                               1 	(obj:0)
C1554                                               1 	(obj:0)
C1592                                               1 	(obj:0)
C1621                                               1 	(obj:0)
C1683                                               1 	(obj:0)
C1716                                               1 	(obj:0)
C1779                                               1 	(obj:0)
C1847                                               1 	(obj:0)
C1869                                               1 	(obj:0)
C1915                                               1 	(obj:0)
C1981                                               1 	(obj:0)
C2030                                               1 	(obj:0)
C2088                                               1 	(obj:0)
C2106                                               1 	(obj:0)
C2174                                               1 	(obj:0)
C2237                                               1 	(obj:0)
C2245                                               1 	(obj:0)
C2282                                               1 	(obj:0)
C2317                                               1 	(obj:0)
C2322                                               1 	(obj:0)
C2351                                               1 	(obj:0)
C2444                                               1 	(obj:0)
C2498                                               1 	(obj:0)
C2510                                               1 	(obj:0)
C2563                                               1 	(obj:0)
C0096                                               1 	(obj:10)
C0097                                               1 	(obj:10)
C0098                                               1 	(obj:10)
C0099                                               1 	(obj:10)
C0100                                               1 	(obj:10)
