analyze/results_flowersnark/final_miplib_symretope_if_extended_generating_set_cpx_v802__settings_final_nosym_norestarts__1__neos-503737.mps.gz.out
FILENAME:   /home/mcs001/s132664/testsets/IP/miplib2017/neos-503737.mps.gz
SETTINGS:   settings_final_nosym_norestarts
TIMELIMIT:  7200
OUTPUTNAME: final_miplib_symretope_if_extended_generating_set_cpx_v802__settings_final_nosym_norestarts__1__
BINNAME:    bin/sbcs.linux.x86_64.gnu.opt.cpx
BASENAME:   neos-503737.mps.gz
SEED:       1
@01 /home/mcs001/s132664/testsets/IP/miplib2017/neos-503737.mps.gz ===========
@02 neos-503737.mps.gz
@03 1686649832
SCIP version 8.0.2 [precision: 8 byte] [memory: block] [mode: optimized] [LP solver: CPLEX 20.1.0.0] [GitHash: 5f0473c]
Copyright (C) 2002-2022 Konrad-Zuse-Zentrum fuer Informationstechnik Berlin (ZIB)

Symretope propagation methods - (c) Jasper van Doornmalen, Christopher Hojny.
[GitHash: 2fd0484]

reading parameter file <../settings/settings_final_nosym_norestarts.set> ...

Changed settings:
limits/time = 7200
limits/restarts = 0
misc/usesymmetry = 0
randomization/randomseedshift = 1
constraints/orbisack/sepafreq = -1
constraints/symresack/sepafreq = -1
propagating/symmetry/detectsubgroups = FALSE
propagating/symmetry/usesymretopes = FALSE
propagating/symmetry/relabelsymretopes = 0
propagating/symmetry/ofsymcomptiming = 0
constraints/symretope/sepafreq = -1
constraints/symretope/peek = FALSE


solving problem ...

original problem has 2850 variables (2500 bin, 0 int, 0 impl, 350 cont) and 500 constraints
presolving:
(round 1, fast)       0 del vars, 0 del conss, 0 add conss, 350 chg bounds, 0 chg sides, 0 chg coeffs, 0 upgd conss, 0 impls, 150 clqs
(round 2, exhaustive) 0 del vars, 0 del conss, 0 add conss, 350 chg bounds, 0 chg sides, 0 chg coeffs, 200 upgd conss, 0 impls, 150 clqs
   (0.1s) probing: 51/2550 (2.0%) - 0 fixings, 0 aggregations, 0 implications, 0 bound changes
   (0.1s) probing aborted: 50/50 successive totally useless probings
presolving (3 rounds: 3 fast, 2 medium, 2 exhaustive):
 0 deleted vars, 0 deleted constraints, 0 added constraints, 350 tightened bounds, 0 added holes, 0 changed sides, 0 changed coefficients
 0 implications, 150 cliques
presolved problem has 2850 variables (2500 bin, 0 int, 350 impl, 0 cont) and 500 constraints
    150 constraints of type <setppc>
    300 constraints of type <linear>
     50 constraints of type <logicor>
transformed objective value is always integral (scale: 1)
Presolving Time: 0.12

 time | node  | left  |LP iter|LP it/n|mem/heur|mdpt |vars |cons |rows |cuts |sepa|confs|strbr|  dualbound   | primalbound  |  gap   | compl. 
p 0.1s|     1 |     0 |     0 |     - |  clique|   0 |2850 | 500 | 500 |   0 |  0 |   0 |   0 | 0.000000e+00 | 5.030000e+03 |    Inf | unknown
p 0.2s|     1 |     0 |     0 |     - |   locks|   0 |2850 | 504 | 500 |   0 |  0 |   4 |   0 | 0.000000e+00 | 3.040000e+02 |    Inf | unknown
  0.2s|     1 |     0 |     1 |     - |    33M |   0 |2850 | 514 | 500 |   0 |  0 |  14 |   0 | 5.000000e+01 | 3.040000e+02 | 508.00%| unknown
  0.2s|     1 |     0 |     1 |     - |    33M |   0 |2850 | 514 | 500 |   0 |  0 |  14 |   0 | 5.000000e+01 | 3.040000e+02 | 508.00%| unknown
  0.3s|     1 |     0 |   171 |     - |    35M |   0 |2850 | 514 | 506 |   6 |  1 |  14 |   0 | 5.000000e+01 | 3.040000e+02 | 508.00%| unknown
  0.4s|     1 |     0 |   293 |     - |    35M |   0 |2850 | 514 | 508 |   8 |  2 |  14 |   0 | 5.000000e+01 | 3.040000e+02 | 508.00%| unknown
  0.4s|     1 |     0 |   512 |     - |    35M |   0 |2850 | 514 | 514 |  14 |  3 |  14 |   0 | 5.000000e+01 | 3.040000e+02 | 508.00%| unknown
  0.5s|     1 |     0 |   664 |     - |    35M |   0 |2850 | 518 | 519 |  19 |  4 |  18 |   0 | 5.000000e+01 | 3.040000e+02 | 508.00%| unknown
  0.5s|     1 |     0 |   788 |     - |    35M |   0 |2850 | 518 | 523 |  23 |  5 |  18 |   0 | 5.000000e+01 | 3.040000e+02 | 508.00%| unknown
  0.5s|     1 |     0 |   939 |     - |    35M |   0 |2850 | 518 | 531 |  31 |  6 |  18 |   0 | 5.000000e+01 | 3.040000e+02 | 508.00%| unknown
  0.6s|     1 |     0 |  1299 |     - |    35M |   0 |2850 | 518 | 542 |  42 |  7 |  18 |   0 | 5.000000e+01 | 3.040000e+02 | 508.00%| unknown
  0.6s|     1 |     0 |  1688 |     - |    35M |   0 |2850 | 518 | 548 |  48 |  8 |  18 |   0 | 5.000000e+01 | 3.040000e+02 | 508.00%| unknown
  0.7s|     1 |     0 |  1851 |     - |    36M |   0 |2850 | 518 | 557 |  57 |  9 |  18 |   0 | 5.000000e+01 | 3.040000e+02 | 508.00%| unknown
  0.7s|     1 |     0 |  2000 |     - |    36M |   0 |2850 | 518 | 566 |  66 | 10 |  18 |   0 | 5.000000e+01 | 3.040000e+02 | 508.00%| unknown
  0.8s|     1 |     0 |  2115 |     - |    36M |   0 |2850 | 518 | 568 |  70 | 11 |  18 |   0 | 5.000000e+01 | 3.040000e+02 | 508.00%| unknown
 time | node  | left  |LP iter|LP it/n|mem/heur|mdpt |vars |cons |rows |cuts |sepa|confs|strbr|  dualbound   | primalbound  |  gap   | compl. 
o 0.9s|     1 |     0 |  3831 |     - |feaspump|   0 |2850 | 517 | 568 |  70 | 11 |  18 |   0 | 5.000000e+01 | 1.060000e+02 | 112.00%| unknown
  1.2s|     1 |     0 |  6112 |     - |    36M |   0 |2850 | 517 | 568 |  70 | 11 |  18 |   0 | 5.000000e+01 | 1.060000e+02 | 112.00%| unknown
  1.2s|     1 |     0 |  6112 |     - |    36M |   0 |2850 | 517 | 568 |  70 | 11 |  18 |   0 | 5.000000e+01 | 1.060000e+02 | 112.00%| unknown
  1.2s|     1 |     0 |  6274 |     - |    36M |   0 |2850 | 517 | 574 |  76 | 12 |  18 |   0 | 5.000000e+01 | 1.060000e+02 | 112.00%| unknown
  1.2s|     1 |     0 |  6337 |     - |    36M |   0 |2850 | 521 | 575 |  77 | 13 |  22 |   0 | 5.000000e+01 | 1.060000e+02 | 112.00%| unknown
  1.5s|     1 |     2 |  6337 |     - |    36M |   0 |2850 | 521 | 575 |  77 | 13 |  22 |  10 | 5.000000e+01 | 1.060000e+02 | 112.00%| unknown
* 4.9s|    23 |    22 | 12340 | 454.5 |strongbr|  22 |2850 | 521 | 504 |  81 |  1 |  22 |  80 | 5.000000e+01 | 5.400000e+01 |   8.00%| unknown
 12.3s|   100 |    77 | 33000 | 309.7 |    49M |  27 |2850 |1446 | 505 |  83 |  1 | 954 | 717 | 5.000000e+01 | 5.400000e+01 |   8.00%| unknown
 14.9s|   200 |   175 | 60780 | 293.7 |    51M |  27 |2850 |1544 | 502 | 137 |  1 |1092 | 748 | 5.000000e+01 | 5.400000e+01 |   8.00%| unknown
 18.2s|   300 |   275 | 87219 | 283.9 |    53M |  35 |2850 |1675 | 503 | 160 |  1 |1251 | 812 | 5.000000e+01 | 5.400000e+01 |   8.00%| unknown
L18.4s|   311 |   281 | 89721 | 281.9 |    rins|  35 |2850 |1697 | 505 | 160 |  1 |1289 | 819 | 5.000000e+01 | 5.300000e+01 |   6.00%| unknown
 20.5s|   400 |   368 |110189 | 270.3 |    54M |  35 |2850 |1751 | 503 | 165 |  1 |1380 | 869 | 5.000000e+01 | 5.300000e+01 |   6.00%| unknown
 23.1s|   500 |   462 |146042 | 288.0 |    56M |  41 |2850 |1983 | 503 | 178 |  1 |1660 | 912 | 5.000000e+01 | 5.300000e+01 |   6.00%| unknown
 25.8s|   600 |   546 |177434 | 292.3 |    58M |  41 |2850 |2407 | 503 | 179 |  1 |2115 | 958 | 5.000000e+01 | 5.300000e+01 |   6.00%| unknown
 29.2s|   700 |   638 |213436 | 302.0 |    60M |  41 |2850 |2934 | 504 | 192 |  1 |2713 | 994 | 5.000000e+01 | 5.300000e+01 |   6.00%| unknown
 time | node  | left  |LP iter|LP it/n|mem/heur|mdpt |vars |cons |rows |cuts |sepa|confs|strbr|  dualbound   | primalbound  |  gap   | compl. 
 32.9s|   800 |   726 |255301 | 316.6 |    62M |  41 |2850 |3215 | 507 | 213 |  1 |3061 |1044 | 5.000000e+01 | 5.300000e+01 |   6.00%| unknown
 35.9s|   900 |   810 |288761 | 318.6 |    63M |  41 |2850 |3462 | 504 | 231 |  1 |3396 |1091 | 5.000000e+01 | 5.300000e+01 |   6.00%| unknown
 38.8s|  1000 |   898 |321794 | 319.8 |    65M |  41 |2850 |3816 | 504 | 238 |  2 |3812 |1165 | 5.000000e+01 | 5.300000e+01 |   6.00%| unknown
 42.0s|  1100 |   986 |349377 | 315.8 |    66M |  41 |2850 |4077 | 502 | 253 |  1 |4189 |1206 | 5.000000e+01 | 5.300000e+01 |   6.00%| unknown
 45.2s|  1200 |  1078 |382600 | 317.1 |    67M |  41 |2850 |4597 | 504 | 275 |  1 |4863 |1252 | 5.000000e+01 | 5.300000e+01 |   6.00%| unknown
*45.6s|  1212 |   967 |385775 | 316.6 |    LP  |  41 |2850 |4588 | 505 | 275 |  1 |4868 |1267 | 5.000000e+01 | 5.200000e+01 |   4.00%| unknown
 49.5s|  1300 |  1037 |421816 | 322.9 |    69M |  41 |2850 |4959 | 502 | 297 |  1 |5480 |1356 | 5.000000e+01 | 5.200000e+01 |   4.00%| unknown
 53.7s|  1400 |  1111 |460190 | 327.3 |    72M |  46 |2850 |5380 | 504 | 333 |  1 |6176 |1464 | 5.000000e+01 | 5.200000e+01 |   4.00%| unknown
 57.4s|  1500 |  1185 |493323 | 327.5 |    74M |  46 |2850 |5512 | 507 | 369 |  1 |6699 |1593 | 5.000000e+01 | 5.200000e+01 |   4.00%| unknown
*61.3s|  1565 |     0 |513747 | 327.0 |strongbr|  46 |2850 |4392 | 504 | 379 |  1 |7056 |1648 | 5.000000e+01 | 5.000000e+01 |   0.00%| 100.00%

SCIP Status        : problem is solved [optimal solution found]
Solving Time (sec) : 61.31
Solving Nodes      : 1565
Primal Bound       : +5.00000000000000e+01 (21 solutions)
Dual Bound         : +5.00000000000000e+01
Gap                : 0.00 %
SCIP Status        : problem is solved [optimal solution found]
Total Time         :      61.32
  solving          :      61.31
  presolving       :       0.12 (included in solving)
  reading          :       0.01
  copying          :       1.97 (96 #copies) (minimal 0.01, maximal 0.04, average 0.02)
Original Problem   :
  Problem name     : neos-503737
  Variables        : 2850 (2500 binary, 0 integer, 0 implicit integer, 350 continuous)
  Constraints      : 500 initial, 500 maximal
  Objective        : minimize, 350 non-zeros (abs.min = 1, abs.max = 100)
Presolved Problem  :
  Problem name     : t_neos-503737
  Variables        : 2850 (2500 binary, 0 integer, 350 implicit integer, 0 continuous)
  Constraints      : 500 initial, 5690 maximal
  Objective        : minimize, 350 non-zeros (abs.min = 1, abs.max = 100)
  Nonzeros         : 16850 constraint, 7000 clique table
Presolvers         :   ExecTime  SetupTime  Calls  FixedVars   AggrVars   ChgTypes  ChgBounds   AddHoles    DelCons    AddCons   ChgSides   ChgCoefs
  boundshift       :       0.00       0.00      0          0          0          0          0          0          0          0          0          0
  convertinttobin  :       0.00       0.00      0          0          0          0          0          0          0          0          0          0
  domcol           :       0.00       0.00      1          0          0          0          0          0          0          0          0          0
  dualagg          :       0.00       0.00      0          0          0          0          0          0          0          0          0          0
  dualcomp         :       0.00       0.00      0          0          0          0          0          0          0          0          0          0
  dualinfer        :       0.00       0.00      0          0          0          0          0          0          0          0          0          0
  dualsparsify     :       0.00       0.00      1          0          0          0          0          0          0          0          0          0
  gateextraction   :       0.00       0.00      1          0          0          0          0          0          0          0          0          0
  implics          :       0.00       0.00      2          0          0          0          0          0          0          0          0          0
  inttobinary      :       0.00       0.00      0          0          0          0          0          0          0          0          0          0
  qpkktref         :       0.00       0.00      0          0          0          0          0          0          0          0          0          0
  redvub           :       0.00       0.00      0          0          0          0          0          0          0          0          0          0
  sparsify         :       0.10       0.00      1          0          0          0          0          0          0          0          0          0
  stuffing         :       0.00       0.00      0          0          0          0          0          0          0          0          0          0
  trivial          :       0.00       0.00      3          0          0          0          0          0          0          0          0          0
  tworowbnd        :       0.00       0.00      0          0          0          0          0          0          0          0          0          0
  dualfix          :       0.00       0.00      3          0          0          0          0          0          0          0          0          0
  genvbounds       :       0.00       0.00      0          0          0          0          0          0          0          0          0          0
  probing          :       0.00       0.00      1          0          0          0          0          0          0          0          0          0
  pseudoobj        :       0.00       0.00      0          0          0          0          0          0          0          0          0          0
  symmetry         :       0.00       0.00      0          0          0          0          0          0          0          0          0          0
  vbounds          :       0.00       0.00      1          0          0          0          0          0          0          0          0          0
  knapsack         :       0.00       0.00      0          0          0          0          0          0          0          0          0          0
  setppc           :       0.00       0.00      3          0          0          0          0          0          0          0          0          0
  linear           :       0.01       0.00      5          0          0          0        350          0          0          0          0          0
  logicor          :       0.00       0.00      3          0          0          0          0          0          0          0          0          0
  bounddisjunction :       0.00       0.00      0          0          0          0          0          0          0          0          0          0
  benders          :       0.00       0.00      0          0          0          0          0          0          0          0          0          0
  components       :       0.00       0.00      1          0          0          0          0          0          0          0          0          0
  root node        :          -          -      -        295          -          -       1095          -          -          -          -          -
Constraints        :     Number  MaxNumber  #Separate #Propagate    #EnfoLP    #EnfoRelax  #EnfoPS    #Check   #ResProp    Cutoffs    DomReds       Cuts    Applied      Conss   Children
  benderslp        :          0          0          0          0       1760          0          0        158          0          0          0          0          0          0          0
  integral         :          0          0          0          0       1760          0          0        158          0          2        930          0          0       1981       2920
  knapsack         :          0+        15          0      25973          0          0          0          0       1978         23       1461          0          0          0          0
  setppc           :        150        150         12      31497          1          0          0        117     625829        137      78294          0          0          0          0
  linear           :        300+       312         12      31357          1          0          0         20      15108         70       4290          0          0          0          0
  logicor          :         50+      4583         12      11810          1          0          0         20        964        167        181          0          0          0          0
  bounddisjunction :          0+       724          0       3553          0          0          0          0         23         11          6          0          0          0          0
  benders          :          0          0          0          0          1          0          0         21          0          0          0          0          0          0          0
  countsols        :          0          0          0          0          1          0          0         21          0          0          0          0          0          0          0
  components       :          0          0          0          0          0          0          0          0          0          0          0          0          0          0          0
Constraint Timings :  TotalTime  SetupTime   Separate  Propagate     EnfoLP     EnfoPS     EnfoRelax   Check    ResProp    SB-Prop
  benderslp        :       0.00       0.00       0.00       0.00       0.00       0.00       0.00       0.00       0.00       0.00
  integral         :      16.32       0.00       0.00       0.00      16.31       0.00       0.00       0.00       0.00       0.00
  knapsack         :       0.08       0.00       0.00       0.05       0.00       0.00       0.00       0.00       0.02       0.01
  setppc           :       0.74       0.00       0.00       0.42       0.00       0.00       0.00       0.00       0.13       0.19
  linear           :       0.17       0.00       0.00       0.12       0.00       0.00       0.00       0.00       0.01       0.04
  logicor          :       0.29       0.00       0.00       0.23       0.00       0.00       0.00       0.00       0.01       0.05
  bounddisjunction :       0.04       0.00       0.00       0.04       0.00       0.00       0.00       0.00       0.00       0.01
  benders          :       0.00       0.00       0.00       0.00       0.00       0.00       0.00       0.00       0.00       0.00
  countsols        :       0.00       0.00       0.00       0.00       0.00       0.00       0.00       0.00       0.00       0.00
  components       :       0.00       0.00       0.00       0.00       0.00       0.00       0.00       0.00       0.00       0.00
Propagators        : #Propagate   #ResProp    Cutoffs    DomReds
  dualfix          :          7          0          0          0
  genvbounds       :          0          0          0          0
  nlobbt           :          0          0          0          0
  obbt             :          0          0          0          0
  probing          :          0          0          0          0
  pseudoobj        :       5730          0          0        500
  redcost          :       4174          0          0      30453
  rootredcost      :          4          0          0         95
  symmetry         :          0          0          0          0
  vbounds          :       6861          0          0          0
Propagator Timings :  TotalTime  SetupTime   Presolve  Propagate    ResProp    SB-Prop
  dualfix          :       0.00       0.00       0.00       0.00       0.00       0.00
  genvbounds       :       0.00       0.00       0.00       0.00       0.00       0.00
  nlobbt           :       0.00       0.00       0.00       0.00       0.00       0.00
  obbt             :       0.00       0.00       0.00       0.00       0.00       0.00
  probing          :       0.00       0.00       0.00       0.00       0.00       0.00
  pseudoobj        :       0.03       0.00       0.00       0.03       0.00       0.00
  redcost          :       0.33       0.00       0.00       0.33       0.00       0.00
  rootredcost      :       0.00       0.00       0.00       0.00       0.00       0.00
  symmetry         :       0.00       0.00       0.00       0.00       0.00       0.00
  vbounds          :       0.01       0.00       0.00       0.01       0.00       0.00
Conflict Analysis  :       Time      Calls    Success    DomReds  Conflicts   Literals    Reconvs ReconvLits   Dualrays   Nonzeros   LP Iters   (pool size: [10000,10000])
  propagation      :       0.07        396        357          -       4061      123.2         53       69.4          -          -          -
  infeasible LP    :       0.11         71         71          -       1022      161.8         22       54.0         35      314.4          0
  bound exceed. LP :       4.22        965        832          -      19743      469.7         78       55.0          5      313.2       9870
  strong branching :       0.00          0          0          -          0        0.0          0        0.0          -          -          0
  pseudo solution  :       0.00          0          0          -          0        0.0          0        0.0          -          -          -
  applied globally :       0.28          -          -          0       7016      109.3          -          -         40          -          -
  applied locally  :          -          -          -          0          0        0.0          -          -          0          -          -
Separators         :   ExecTime  SetupTime      Calls  RootCalls    Cutoffs    DomReds  FoundCuts ViaPoolAdd  DirectAdd    Applied ViaPoolApp  DirectApp      Conss
  cut pool         :       0.02          -        278         24          -          -        292        457          -          -          -          -          -    (maximal pool size:        215)
  aggregation      :       0.13       0.00        102         12          0          0          1          0          0          0          0          0          0
  > cmir           :          -          -          -          -          -          -          -          0          0          0          0          0          -
  > flowcover      :          -          -          -          -          -          -          -          0          0          0          0          0          -
  > knapsackcover  :          -          -          -          -          -          -          -          0          0          0          0          0          -
  cgmip            :       0.00       0.00          0          0          0          0          0          0          0          0          0          0          0
  clique           :       0.01       0.00         12         12          0          0         87         97          0         79         79          0          0
  closecuts        :       0.00       0.00          0          0          0          0          0          0          0          0          0          0          0
  convexproj       :       0.00       0.00          0          0          0          0          0          0          0          0          0          0          0
  disjunctive      :       0.00       0.00          0          0          0          0          0          0          0          0          0          0          0
  eccuts           :       0.00       0.00          0          0          0          0          0          0          0          0          0          0          0
  gauge            :       0.00       0.00          0          0          0          0          0          0          0          0          0          0          0
  gomory           :       0.40       0.00         88         10          0          0        163        298          6         81         79          2          0
  > gomorymi       :          -          -          -          -          -          -          -         62          3          2          1          1          -
  > strongcg       :          -          -          -          -          -          -          -        236          3         79         78          1          -
  impliedbounds    :       0.00       0.00        102         12          0          0          0          0          0          0          0          0          0
  interminor       :       0.00       0.00          0          0          0          0          0          0          0          0          0          0          0
  intobj           :       0.00       0.00          0          0          0          0          0          0          0          0          0          0          0
  mcf              :       0.00       0.00          1          1          0          0          0          0          0          0          0          0          0
  minor            :       0.00       0.00          0          0          0          0          0          0          0          0          0          0          0
  mixing           :       0.00       0.00        102         12          0          0          0          0          0          0          0          0          0
  oddcycle         :       0.00       0.00          0          0          0          0          0          0          0          0          0          0          0
  rapidlearning    :       6.24       0.00         79          1          0        233          0          0          0          0          0          0         50
  rlt              :       0.00       0.00         10         10          0          0          0          0          0          0          0          0          0
  zerohalf         :       0.49       0.00         90         12          0          0        248         62        201        219         35        184          0
Cutselectors       :   ExecTime  SetupTime      Calls  RootCalls   Selected     Forced   Filtered  RootSelec   RootForc   RootFilt 
  hybrid           :       0.00       0.00        108         13        379          0        285         77          0         38
Pricers            :   ExecTime  SetupTime      Calls       Vars
  problem variables:       0.00          -          0          0
Branching Rules    :   ExecTime  SetupTime   BranchLP  BranchExt   BranchPS    Cutoffs    DomReds       Cuts      Conss   Children
  allfullstrong    :       0.00       0.00          0          0          0          0          0          0          0          0
  cloud            :       0.00       0.00          0          0          0          0          0          0          0          0
  distribution     :       0.00       0.00          0          0          0          0          0          0          0          0
  fullstrong       :       0.00       0.00          0          0          0          0          0          0          0          0
  inference        :       0.00       0.00          0          0          0          0          0          0          0          0
  leastinf         :       0.00       0.00          0          0          0          0          0          0          0          0
  lookahead        :       0.00       0.00          0          0          0          0          0          0          0          0
  mostinf          :       0.00       0.00          0          0          0          0          0          0          0          0
  multaggr         :       0.00       0.00          0          0          0          0          0          0          0          0
  nodereopt        :       0.00       0.00          0          0          0          0          0          0          0          0
  pscost           :       0.00       0.00          0          0          0          0          0          0          0          0
  random           :       0.00       0.00          0          0          0          0          0          0          0          0
  relpscost        :      16.31       0.00       1759          0          0          2        930          0       2067       2920
  vanillafullstrong:       0.00       0.00          0          0          0          0          0          0          0          0
Primal Heuristics  :   ExecTime  SetupTime      Calls      Found       Best
  LP solutions     :       0.00          -          -          1          1
  relax solutions  :       0.00          -          -          0          0
  pseudo solutions :       0.00          -          -          0          0
  strong branching :       0.02          -          -          2          2
  actconsdiving    :       0.00       0.00          0          0          0
  adaptivediving   :       0.35       0.00         13          0          0
  alns             :       0.24       0.00          5          0          0
  bound            :       0.00       0.00          0          0          0
  clique           :       0.01       0.00          1          1          1
  coefdiving       :       0.00       0.00          0          0          0
  completesol      :       0.00       0.00          0          0          0
  conflictdiving   :       1.17       0.00         25          0          0
  crossover        :       0.20       0.00          5          0          0
  dins             :       0.00       0.00          0          0          0
  distributiondivin:       1.32       0.00         24          0          0
  dps              :       0.00       0.00          0          0          0
  dualval          :       0.00       0.00          0          0          0
  farkasdiving     :       0.00       0.00          0          0          0
  feaspump         :       0.21       0.00          4          4          1
  fixandinfer      :       0.00       0.00          0          0          0
  fracdiving       :       1.60       0.00         25          0          0
  gins             :       0.00       0.00          0          0          0
  guideddiving     :       1.05       0.00         25          0          0
  indicator        :       0.00       0.00          0          0          0
  intdiving        :       0.00       0.00          0          0          0
  intshifting      :       0.00       0.00          0          0          0
  linesearchdiving :       1.25       0.00         25          0          0
  localbranching   :       0.00       0.00          0          0          0
  locks            :       0.01       0.00          1          1          1
  lpface           :       3.83       0.00          2          0          0
  mpec             :       0.00       0.00          0          0          0
  multistart       :       0.00       0.00          0          0          0
  mutation         :       0.00       0.00          0          0          0
  nlpdiving        :       0.00       0.00          0          0          0
  objpscostdiving  :       1.25       0.00         13          0          0
  octane           :       0.00       0.00          0          0          0
  ofins            :       0.00       0.00          0          0          0
  oneopt           :       0.00       0.00          5          0          0
  padm             :       0.00       0.00          0          0          0
  proximity        :       0.00       0.00          0          0          0
  pscostdiving     :       1.59       0.00         24          0          0
  randrounding     :       0.08       0.00        130          0          0
  rens             :       0.03       0.00          1          0          0
  reoptsols        :       0.00       0.00          0          0          0
  repair           :       0.00       0.00          0          0          0
  rins             :       0.42       0.00          6          2          1
  rootsoldiving    :       0.81       0.00         13         10          0
  rounding         :       0.13       0.00        567          0          0
  shiftandpropagate:       0.00       0.00          0          0          0
  shifting         :       0.11       0.00        163          0          0
  simplerounding   :       0.00       0.00          0          0          0
  subnlp           :       0.00       0.00          0          0          0
  trivial          :       0.00       0.00          2          0          0
  trivialnegation  :       0.00       0.00          0          0          0
  trustregion      :       0.00       0.00          0          0          0
  trysol           :       0.00       0.00          0          0          0
  twoopt           :       0.00       0.00          0          0          0
  undercover       :       0.00       0.00          0          0          0
  vbounds          :       0.02       0.00          1          0          0
  veclendiving     :       1.59       0.00         24          0          0
  zeroobj          :       0.00       0.00          0          0          0
  zirounding       :       0.03       0.00       1000          0          0
  other solutions  :          -          -          -          0          -
LP                 :       Time      Calls Iterations  Iter/call   Iter/sec  Time-0-It Calls-0-It    ItLimit
  primal LP        :       0.65         59          0       0.00       0.00       0.65         59
  dual LP          :      16.96       2496     354954     181.66   20930.33       0.16        542
  lex dual LP      :       0.00          0          0       0.00          -
  barrier LP       :       0.00          0          0       0.00          -       0.00          0
  resolve instable :       0.00          0          0       0.00          -
  diving/probing LP:       8.81       1079     158793     147.17   18026.66
  strong branching :      11.97       1649     280955     170.38   23481.21          -          -        235
    (at root node) :          -         10       3056     305.60          -
  conflict analysis:       1.00        987       9870      10.00    9834.45
B&B Tree           :
  number of runs   :          1
  nodes            :       1565 (1460 internal, 105 leaves)
  feasible leaves  :          1
  infeas. leaves   :         22
  objective leaves :         82
  nodes (total)    :       1565 (1460 internal, 105 leaves)
  nodes left       :          0
  max depth        :         46
  max depth (total):         46
  backtracks       :        246 (15.7%)
  early backtracks :          0 (0.0%)
  nodes exc. ref.  :          0 (0.0%)
  delayed cutoffs  :          0
  repropagations   :         94 (148 domain reductions, 0 cutoffs)
  avg switch length:       5.89
  switching time   :       1.22
Root Node          :
  First LP value   : +5.00000000000001e+01
  First LP Iters   :          1 (23.81 Iter/sec)
  First LP Time    :       0.04
  Final Dual Bound : +5.00000000000001e+01
  Final Root Iters :       2340
  Root LP Estimate : +5.08249334154744e+01
Solution           :
  Solutions found  :         21 (7 improvements)
  First Solution   : +5.03000000000000e+03   (in run 1, after 1 nodes, 0.15 seconds, depth 43, found by <clique>)
  Gap First Sol.   :   infinite
  Gap Last Sol.    :       0.00 %
  Primal Bound     : +5.00000000000000e+01   (in run 1, after 1565 nodes, 61.29 seconds, depth 28, found by <relaxation>)
  Dual Bound       : +5.00000000000000e+01
  Gap              :       0.00 %
Integrals          :      Total       Avg%
  primal-dual      :     606.99       9.90
  primal-ref       :          -          - (not evaluated)
  dual-ref         :          -          - (not evaluated)
written solution information to file <results/final_miplib_symretope_if_extended_generating_set_cpx_v802__settings_final_nosym_norestarts__1__neos-503737.mps.gz.sol>
@04 1686649893
